; benchmark generated from python API
(set-info :status unknown)
(declare-fun DISJ_W_S1_R_S1 () Bool)
(declare-fun R_S1_V1 () Bool)
(declare-fun R_S1_V3 () Bool)
(declare-fun W_S1_V4 () Bool)
(declare-fun W_S1_V2 () Bool)
(declare-fun W_S1_V6 () Bool)
(declare-fun W_S1_V3 () Bool)
(declare-fun W_S1_V1 () Bool)
(declare-fun R_S1_V6 () Bool)
(declare-fun R_S1_V4 () Bool)
(declare-fun R_S1_V5 () Bool)
(declare-fun R_S1_V2 () Bool)
(declare-fun R_E2_V1 () Bool)
(declare-fun R_E1_V6 () Bool)
(declare-fun R_E1_V4 () Bool)
(declare-fun R_E1_V5 () Bool)
(declare-fun R_E1_V2 () Bool)
(declare-fun DISJ_W_S1_R_E1 () Bool)
(declare-fun R_E2_V6 () Bool)
(declare-fun R_E2_V4 () Bool)
(declare-fun R_E2_V5 () Bool)
(declare-fun R_E2_V2 () Bool)
(declare-fun DISJ_W_S1_R_E2 () Bool)
(declare-fun W_S1_V5 () Bool)
(declare-fun R_E1_V3 () Bool)
(declare-fun R_E1_V1 () Bool)
(declare-fun R_E2_V3 () Bool)
(assert
 (let (($x3820 (not (and (not R_S1_V1) DISJ_W_S1_R_S1))))
 (let (($x1267 (not (and (not R_S1_V3) DISJ_W_S1_R_S1))))
 (let (($x1496 (not (and (not W_S1_V4) DISJ_W_S1_R_S1))))
 (let (($x5849 (not (and (not W_S1_V2) DISJ_W_S1_R_S1))))
 (let (($x3643 (forall ((V2_0 Int) )(forall ((V5_0 Int) )(forall ((V4_0 Int) )(forall ((V6_0 Int) )(forall ((MW_S1_V1 Bool) )(forall ((MW_S1_V3 Bool) )(forall ((MW_S1_V2 Bool) )(forall ((MW_S1_V5 Bool) )(forall ((MW_S1_V4 Bool) )(forall ((MW_S1_V6 Bool) )(forall ((S1_V1_!5249 Int) )(forall ((S1_V1_!5255 Int) )(forall ((S1_V1_!5264 Int) )(forall ((S1_V1_!5270 Int) )(forall ((S1_V3_!5250 Int) )(forall ((S1_V3_!5256 Int) )(forall ((S1_V3_!5265 Int) )(forall ((S1_V3_!5271 Int) )(forall ((S1_V2_!5251 Int) )(forall ((S1_V2_!5257 Int) )(forall ((S1_V2_!5266 Int) )(forall ((S1_V2_!5272 Int) )(forall ((E1_!5246 Int) )(forall ((E1_!5261 Int) )(forall ((E1_!5263 Int) )(forall ((S1_V5_!5252 Int) )(forall ((S1_V5_!5258 Int) )(forall ((S1_V5_!5267 Int) )(forall ((S1_V5_!5273 Int) )(forall ((E2_!5247 Int) )(forall ((E2_!5248 Int) )(forall ((E2_!5262 Int) )(forall ((S1_V4_!5253 Int) )(forall ((S1_V4_!5259 Int) )(forall ((S1_V4_!5268 Int) )(forall ((S1_V4_!5274 Int) )(forall ((S1_V6_!5254 Int) )(forall ((S1_V6_!5260 Int) )(forall ((S1_V6_!5269 Int) )(forall ((S1_V6_!5275 Int) )(let ((?x3501 (ite MW_S1_V3 S1_V3_!5271 E2_!5262)))
 (let ((?x3510 (ite MW_S1_V3 S1_V3_!5250 E2_!5248)))
 (let ((?x2463 (+ 1 ?x3510)))
 (let ((?x3674 (ite MW_S1_V3 S1_V3_!5256 ?x2463)))
 (let ((?x4683 (ite MW_S1_V1 S1_V1_!5264 E1_!5263)))
 (let ((?x3021 (+ 1 ?x4683)))
 (let ((?x2010 (ite MW_S1_V1 S1_V1_!5270 ?x3021)))
 (let ((?x3598 (ite MW_S1_V1 S1_V1_!5255 E1_!5246)))
 (let (($x118 (and (= ?x3598 ?x2010) (= ?x3674 ?x3501) (= (ite MW_S1_V2 S1_V2_!5257 V2_0) (ite MW_S1_V2 S1_V2_!5272 V2_0)) (= (ite MW_S1_V5 S1_V5_!5258 V5_0) (ite MW_S1_V5 S1_V5_!5273 V5_0)) (= (ite MW_S1_V4 S1_V4_!5259 V4_0) (ite MW_S1_V4 S1_V4_!5274 V4_0)) (= (ite MW_S1_V6 S1_V6_!5260 V6_0) (ite MW_S1_V6 S1_V6_!5275 V6_0)))))
 (let (($x295 (and (not (<= V4_0 E2_!5247)) (not (<= V2_0 E1_!5246)) (not (<= V4_0 E2_!5248)) (not (<= (ite MW_S1_V4 S1_V4_!5253 V4_0) ?x2463)) (>= ?x3674 (+ (- 1) (ite MW_S1_V4 S1_V4_!5259 V4_0))) (>= ?x3598 (+ (- 1) (ite MW_S1_V2 S1_V2_!5257 V2_0))) (not (<= V2_0 E1_!5261)) (not (<= V4_0 E2_!5262)) (not (<= V2_0 E1_!5263)) (not (<= (ite MW_S1_V2 S1_V2_!5266 V2_0) ?x3021)) (>= ?x2010 (+ (- 1) (ite MW_S1_V2 S1_V2_!5272 V2_0))) (>= ?x3501 (+ (- 1) (ite MW_S1_V4 S1_V4_!5274 V4_0))))))
 (let (($x4777 (= S1_V6_!5269 S1_V6_!5275)))
 (let (($x123 (not R_S1_V6)))
 (let (($x2603 (or $x123 (= V6_0 (ite MW_S1_V6 S1_V6_!5269 V6_0)))))
 (let (($x4951 (not R_S1_V4)))
 (let (($x171 (or $x4951 (= V4_0 (ite MW_S1_V4 S1_V4_!5268 V4_0)))))
 (let (($x2918 (not R_S1_V5)))
 (let (($x4982 (or $x2918 (= V5_0 (ite MW_S1_V5 S1_V5_!5267 V5_0)))))
 (let (($x2652 (not R_S1_V2)))
 (let (($x21 (or $x2652 (= V2_0 (ite MW_S1_V2 S1_V2_!5266 V2_0)))))
 (let (($x2549 (and (or (not R_S1_V1) (= E1_!5263 ?x3021)) (or (not R_S1_V3) (= E2_!5262 (ite MW_S1_V3 S1_V3_!5265 E2_!5262))) $x21 $x4982 $x171 $x2603)))
 (let (($x4100 (not $x2549)))
 (let (($x5821 (= S1_V6_!5260 S1_V6_!5275)))
 (let (($x2545 (and (or (not R_S1_V1) (= (ite MW_S1_V1 S1_V1_!5249 E1_!5246) ?x3021)) (or (not R_S1_V3) (= ?x3510 (+ (- 1) (ite MW_S1_V3 S1_V3_!5265 E2_!5262)))) (or $x2652 (= (ite MW_S1_V2 S1_V2_!5251 V2_0) (ite MW_S1_V2 S1_V2_!5266 V2_0))) (or $x2918 (= (ite MW_S1_V5 S1_V5_!5252 V5_0) (ite MW_S1_V5 S1_V5_!5267 V5_0))) (or $x4951 (= (ite MW_S1_V4 S1_V4_!5253 V4_0) (ite MW_S1_V4 S1_V4_!5268 V4_0))) (or $x123 (= (ite MW_S1_V6 S1_V6_!5254 V6_0) (ite MW_S1_V6 S1_V6_!5269 V6_0))))))
 (let (($x2696 (not $x2545)))
 (let (($x1332 (= S1_V6_!5260 S1_V6_!5269)))
 (let (($x5110 (or $x123 (= (ite MW_S1_V6 S1_V6_!5254 V6_0) V6_0))))
 (let (($x5266 (or $x4951 (= (ite MW_S1_V4 S1_V4_!5253 V4_0) V4_0))))
 (let (($x3606 (or $x2918 (= (ite MW_S1_V5 S1_V5_!5252 V5_0) V5_0))))
 (let (($x3898 (or $x2652 (= (ite MW_S1_V2 S1_V2_!5251 V2_0) V2_0))))
 (let (($x5736 (and (or (not R_S1_V1) (= (ite MW_S1_V1 S1_V1_!5249 E1_!5246) E1_!5263)) (or (not R_S1_V3) (= ?x3510 (+ (- 1) E2_!5262))) $x3898 $x3606 $x5266 $x5110)))
 (let (($x1409 (not $x5736)))
 (let (($x20 (and (or (not R_S1_V1) (= (ite MW_S1_V1 S1_V1_!5249 E1_!5246) E1_!5246)) (or (not R_S1_V3) (= ?x3510 (+ (- 1) E2_!5248))) $x3898 $x3606 $x5266 $x5110)))
 (let (($x3474 (not $x20)))
 (let (($x6004 (and (or (not R_S1_V1) (= E1_!5246 ?x3021)) (or (not R_S1_V3) (= E2_!5248 (ite MW_S1_V3 S1_V3_!5265 E2_!5262))) $x21 $x4982 $x171 $x2603)))
 (let (($x5866 (not $x6004)))
 (let (($x3873 (and (or (not R_S1_V1) (= E1_!5246 E1_!5263)) (or (not R_S1_V3) (= E2_!5248 E2_!5262)))))
 (let (($x3141 (not $x3873)))
 (let (($x2706 (= S1_V4_!5274 S1_V4_!5268)))
 (let (($x5545 (or $x123 (= (ite MW_S1_V6 S1_V6_!5269 V6_0) V6_0))))
 (let (($x12 (or $x4951 (= (ite MW_S1_V4 S1_V4_!5268 V4_0) V4_0))))
 (let (($x1330 (or $x2918 (= (ite MW_S1_V5 S1_V5_!5267 V5_0) V5_0))))
 (let (($x163 (or $x2652 (= (ite MW_S1_V2 S1_V2_!5266 V2_0) V2_0))))
 (let (($x3262 (and (or (not R_S1_V1) (= ?x4683 (+ (- 1) E1_!5263))) (or (not R_S1_V3) (= (ite MW_S1_V3 S1_V3_!5265 E2_!5262) E2_!5262)) $x163 $x1330 $x12 $x5545)))
 (let (($x5173 (not $x3262)))
 (let (($x996 (and (or (not R_S1_V1) (= ?x4683 (+ (- 1) (ite MW_S1_V1 S1_V1_!5249 E1_!5246)))) (or (not R_S1_V3) (= (ite MW_S1_V3 S1_V3_!5265 E2_!5262) ?x2463)) (or $x2652 (= (ite MW_S1_V2 S1_V2_!5266 V2_0) (ite MW_S1_V2 S1_V2_!5251 V2_0))) (or $x2918 (= (ite MW_S1_V5 S1_V5_!5267 V5_0) (ite MW_S1_V5 S1_V5_!5252 V5_0))) (or $x4951 (= (ite MW_S1_V4 S1_V4_!5268 V4_0) (ite MW_S1_V4 S1_V4_!5253 V4_0))) (or $x123 (= (ite MW_S1_V6 S1_V6_!5269 V6_0) (ite MW_S1_V6 S1_V6_!5254 V6_0))))))
 (let (($x2802 (not $x996)))
 (let (($x2429 (and (or (not R_S1_V1) (= ?x4683 (+ (- 1) E1_!5246))) (or (not R_S1_V3) (= (ite MW_S1_V3 S1_V3_!5265 E2_!5262) E2_!5248)) $x163 $x1330 $x12 $x5545)))
 (let (($x3309 (not $x2429)))
 (let (($x1577 (and (or (not R_S1_V1) (= E1_!5246 (ite MW_S1_V1 S1_V1_!5249 E1_!5246))) (or (not R_S1_V3) (= E2_!5248 ?x2463)) (or $x2652 (= V2_0 (ite MW_S1_V2 S1_V2_!5251 V2_0))) (or $x2918 (= V5_0 (ite MW_S1_V5 S1_V5_!5252 V5_0))) (or $x4951 (= V4_0 (ite MW_S1_V4 S1_V4_!5253 V4_0))) (or $x123 (= V6_0 (ite MW_S1_V6 S1_V6_!5254 V6_0))))))
 (let (($x2001 (not $x1577)))
 (let (($x3228 (and (or (not R_S1_V1) (= E1_!5263 E1_!5246)) (or (not R_S1_V3) (= E2_!5262 E2_!5248)))))
 (let (($x3179 (= E1_!5263 E1_!5261)))
 (let (($x5980 (= E1_!5263 E1_!5246)))
 (let (($x3213 (= E1_!5246 E1_!5261)))
 (let (($x3407 (and (or $x2001 (= S1_V1_!5249 S1_V1_!5255)) (or $x3141 (= S1_V1_!5249 S1_V1_!5264)) (or $x5866 (= S1_V1_!5249 S1_V1_!5270)) (or $x1409 (= S1_V1_!5255 S1_V1_!5264)) (or $x2802 (= S1_V1_!5270 S1_V1_!5255)) (or $x5173 (= S1_V1_!5270 S1_V1_!5264)) (or $x2001 (= S1_V3_!5250 S1_V3_!5256)) (or $x3141 (= S1_V3_!5250 S1_V3_!5265)) (or $x5866 (= S1_V3_!5250 S1_V3_!5271)) (or $x1409 (= S1_V3_!5256 S1_V3_!5265)) (or $x2696 (= S1_V3_!5256 S1_V3_!5271)) (or $x4100 (= S1_V3_!5265 S1_V3_!5271)) (or $x3141 (= S1_V2_!5251 S1_V2_!5266)) (or $x5866 (= S1_V2_!5251 S1_V2_!5272)) (or $x3474 (= S1_V2_!5257 S1_V2_!5251)) (or $x1409 (= S1_V2_!5257 S1_V2_!5266)) (or $x2696 (= S1_V2_!5257 S1_V2_!5272)) (or $x4100 (= S1_V2_!5266 S1_V2_!5272)) $x3213 $x5980 $x3179 (or $x3474 (= S1_V5_!5258 S1_V5_!5252)) (or $x1409 (= S1_V5_!5258 S1_V5_!5267)) (or (not $x3228) (= S1_V5_!5267 S1_V5_!5252)) (or $x3309 (= S1_V5_!5273 S1_V5_!5252)) (or $x2802 (= S1_V5_!5273 S1_V5_!5258)) (or $x5173 (= S1_V5_!5273 S1_V5_!5267)) (= E2_!5248 E2_!5247) (or (not (or (not R_E2_V1) $x3213)) (= E2_!5248 E2_!5262)) (or (not (or (not R_E2_V1) (= E1_!5261 E1_!5246))) (= E2_!5262 E2_!5247)) (or $x2001 (= S1_V4_!5253 S1_V4_!5259)) (or $x3141 (= S1_V4_!5253 S1_V4_!5268)) (or $x1409 (= S1_V4_!5259 S1_V4_!5268)) (or $x3309 (= S1_V4_!5274 S1_V4_!5253)) (or $x2802 (= S1_V4_!5274 S1_V4_!5259)) (or $x5173 $x2706) (or $x3141 (= S1_V6_!5254 S1_V6_!5269)) (or $x5866 (= S1_V6_!5254 S1_V6_!5275)) (or $x3474 (= S1_V6_!5260 S1_V6_!5254)) (or $x1409 $x1332) (or $x2696 $x5821) (or $x4100 $x4777) (or (not MW_S1_V1) W_S1_V1) (or (not MW_S1_V3) W_S1_V3) (or (not MW_S1_V2) W_S1_V2) (or (not MW_S1_V4) W_S1_V4) (or (not MW_S1_V6) W_S1_V6))))
 (or (not $x3407) (not $x295) $x118)))))))))))))))))))))))))))))))))))))))))))))))))))))))))
 )
 )
 )
 )
 )
 )
 )
 )
 )
 )
 )
 )
 )
 )
 )
 )
 )
 )
 )
 )
 )
 )
 )
 )
 )
 )
 )
 )
 )
 )
 )
 )
 )
 )
 )
 )
 )
 )
 )
 ))
 (let (($x1883 (and W_S1_V6 R_E1_V6)))
 (let (($x5825 (and W_S1_V4 R_E1_V4)))
 (let (($x3382 (and W_S1_V2 R_E1_V2)))
 (let (($x6035 (= DISJ_W_S1_R_E1 (not (or $x3382 R_E1_V5 $x5825 $x1883)))))
 (let (($x4826 (and W_S1_V6 R_S1_V6)))
 (let (($x177 (and W_S1_V4 R_S1_V4)))
 (let (($x2047 (and W_S1_V2 R_S1_V2)))
 (let (($x3383 (and W_S1_V3 R_S1_V3)))
 (let (($x761 (and W_S1_V1 R_S1_V1)))
 (let (($x4880 (= DISJ_W_S1_R_S1 (not (or $x761 $x3383 $x2047 R_S1_V5 $x177 $x4826)))))
 (let (($x2772 (and W_S1_V6 R_E2_V6)))
 (let (($x5815 (and W_S1_V4 R_E2_V4)))
 (let (($x5812 (and W_S1_V2 R_E2_V2)))
 (let (($x3442 (and W_S1_V1 R_E2_V1)))
 (let (($x1091 (= DISJ_W_S1_R_E2 (not (or $x3442 $x5812 R_E2_V5 $x5815 $x2772)))))
 (let (($x5870 (not R_E1_V3)))
 (let (($x2782 (not R_E1_V1)))
 (let (($x3040 (not R_E2_V3)))
 (and (and $x3040 $x2782 $x5870 W_S1_V5 $x1091 $x4880 $x6035 $x3643) $x5849 $x1496 $x1267 $x3820)))))))))))))))))))))))))
(check-sat)
